c FILE: i160-331

c SOURCE: From steinlib

c DESCRIPTION: Steinlib instance with 160 nodes and 320 edges.

p edge 160 320
e 1 42
e 1 83
e 1 89
e 1 95
e 1 100
e 1 105
e 1 150
e 1 155
e 2 25
e 2 143
e 2 153
e 3 32
e 3 51
e 3 93
e 4 30
e 4 83
e 4 160
e 5 35
e 5 104
e 5 138
e 6 24
e 6 33
e 6 55
e 7 62
e 7 64
e 7 95
e 7 107
e 8 95
e 9 12
e 9 34
e 9 78
e 9 107
e 10 84
e 10 94
e 10 99
e 10 157
e 11 99
e 11 138
e 11 147
e 12 117
e 12 122
e 12 140
e 12 148
e 13 14
e 13 42
e 13 57
e 13 116
e 13 122
e 13 140
e 14 37
e 14 47
e 14 103
e 14 150
e 14 152
e 15 53
e 15 57
e 15 67
e 15 76
e 15 102
e 15 157
e 16 127
e 16 141
e 16 155
e 17 23
e 17 55
e 17 71
e 17 129
e 17 135
e 18 34
e 18 52
e 18 123
e 18 126
e 18 159
e 19 25
e 19 34
e 19 38
e 19 83
e 19 141
e 20 26
e 20 49
e 20 83
e 20 148
e 21 30
e 21 45
e 21 78
e 21 97
e 21 98
e 22 29
e 22 55
e 23 61
e 23 75
e 24 117
e 24 138
e 25 44
e 25 72
e 25 89
e 25 91
e 25 127
e 26 157
e 27 35
e 27 58
e 27 145
e 28 83
e 28 109
e 29 46
e 29 85
e 30 45
e 30 56
e 30 89
e 30 105
e 30 133
e 30 139
e 30 141
e 31 99
e 31 142
e 32 59
e 32 68
e 32 78
e 32 113
e 32 131
e 33 34
e 33 124
e 34 79
e 34 87
e 34 145
e 35 62
e 35 75
e 36 129
e 36 158
e 37 48
e 37 69
e 37 145
e 38 141
e 39 94
e 39 132
e 39 133
e 40 90
e 40 111
e 41 149
e 42 44
e 42 47
e 42 67
e 42 72
e 42 94
e 42 160
e 43 51
e 43 58
e 43 64
e 43 113
e 44 106
e 45 52
e 45 67
e 45 92
e 45 141
e 45 143
e 46 81
e 46 119
e 47 128
e 47 160
e 48 69
e 49 66
e 49 160
e 50 54
e 50 108
e 50 150
e 51 91
e 51 113
e 52 82
e 52 121
e 52 133
e 53 79
e 54 70
e 54 77
e 54 147
e 54 149
e 55 84
e 55 132
e 56 100
e 56 137
e 57 69
e 57 79
e 57 130
e 57 138
e 57 153
e 58 62
e 58 71
e 58 92
e 58 134
e 58 137
e 59 75
e 59 83
e 59 123
e 60 94
e 60 136
e 60 146
e 61 93
e 62 66
e 62 89
e 62 95
e 62 149
e 63 109
e 63 114
e 63 136
e 63 150
e 64 126
e 65 93
e 65 147
e 65 154
e 66 73
e 67 93
e 68 72
e 68 129
e 70 100
e 70 131
e 71 117
e 72 74
e 72 113
e 73 110
e 73 129
e 73 140
e 74 117
e 74 156
e 75 99
e 75 107
e 75 124
e 76 79
e 76 157
e 77 100
e 77 119
e 78 130
e 78 140
e 79 107
e 80 123
e 80 155
e 81 89
e 81 122
e 82 98
e 82 100
e 83 84
e 83 119
e 83 123
e 83 151
e 84 143
e 85 112
e 85 118
e 85 127
e 85 128
e 85 131
e 85 136
e 86 104
e 86 124
e 86 146
e 87 105
e 87 122
e 88 159
e 89 116
e 89 122
e 89 124
e 89 130
e 89 143
e 89 159
e 90 101
e 90 111
e 91 159
e 93 97
e 93 102
e 93 122
e 94 123
e 94 129
e 95 116
e 95 117
e 95 155
e 96 118
e 96 138
e 97 137
e 98 124
e 98 154
e 99 146
e 101 111
e 101 123
e 102 130
e 102 139
e 103 109
e 103 151
e 104 135
e 105 107
e 105 119
e 107 120
e 108 115
e 109 157
e 110 118
e 110 144
e 111 122
e 112 126
e 112 143
e 113 115
e 113 152
e 115 157
e 117 120
e 117 137
e 117 140
e 120 125
e 120 155
e 121 135
e 123 154
e 130 142
e 131 155
e 132 145
e 133 152
e 134 141
e 134 142
e 136 142
e 137 160
e 138 152
e 139 150
e 141 152
e 145 148
e 147 155
e 151 153
e 151 159
